db/data/27934275940494081134228878870424218.z3.out
sat
-------------------
464.033540586
